NAME : instances/clustered-mixed-tsp/instance-55.tsp
COMMENT : No Comment
TYPE : TSP
DIMENSION: 40
EDGE_WEIGHT_TYPE : EUC_2D
NODE_COORD_SECTION
1 106 363 
2 821 693 
3 811 638 
4 713 837 
5 844 775 
6 803 724 
7 901 818 
8 343 802 
9 1004 408 
10 829 726 
11 171 695 
12 951 750 
13 33 381 
14 859 803 
15 1053 464 
16 469 724 
17 806 637 
18 1003 348 
19 707 648 
20 941 785 
21 993 454 
22 664 546 
23 878 832 
24 1057 395 
25 1005 394 
26 778 977 
27 359 748 
28 740 882 
29 669 426 
30 983 757 
31 420 778 
32 799 637 
33 153 708 
34 896 889 
35 851 881 
36 805 743 
37 943 361 
38 696 470 
39 349 794 
40 758 894 
EOF
